num_features = 57;
num_usage_limits = 5;
num_plans = 3;
num_addons = 0;

features = ["notes","richFormatting","webClippingsFromAnyBrowserOrDevice","webScreenshotsFromAnyBrowserOrDevice","recordAudioNotes","toDoLists","takeNotesWithStylusOnMobileDevices","highlightOnImages","annotateOnImages","commentOnImages","attachPdfs","attachReceipts","attachFiles","attachDocuments","clipPagesImagesFromTheWeb","clipTextFromTheWeb","forwardEmailsIntoEvernote","scanAndDigitalizeBusinessCardsToCreateContacts","annotatePdfs","searchNotes","createNotebooks","createTags","sortInformationByDate","sortInformationByTitle","sortInformationByTag","organizeInformationByDate","organizeInformationByTitle","organizeInformationByTag","searchTextInsideImages","searchTextInsidePdfs","searchTextInsideOfficeDocs","versionHistoryOfNotes","shareNotesWithPeople","setPermissionsForEdittingNotes","setPermissionsForEdittingNotebooks","turnNotesIntoPresentations","shareNotesWithinYourCompany","shareNotebooksWithinYourCompany","recommendRelatedNotes","typpingSuggestions","recommendRelatedNotesFromYourCompany","linkGoogleDriveFiles","connectWithEmailProviders","connectWithCommunicationTools","connectWithCrms","collaborationSpacesForTeams","centralLocationForWork","permissionsBasedAccessToContent","virtualBulletinAboutNewsAccrossTheTeam","editNotesInRealTeamWithOthers","centralizedAccountAdministration","centralizedUserManagement","singleSignOn","activityHistory","businessDataOwnership","offlineAccess","customerSupport"];
usage_limits = ["globalMonthlyUploadLimit","monthlyUploadLimitByUser","maximumNoteSize","collaborationSpacesLimit","devicesOfDevicesWithOneAccount"];
plans = ["FREE","PREMIUM","BUSINESS"];
addons = [];

plans_prices = [0,7.99,14.99];
addons_prices = [];

linked_features = array2d(USAGE_LIMITS, FEATURES, [
    % globalMonthlyUploadLimit
    0,0,0,0,0,0,0,0,0,0,0,0,0,0,0,0,0,0,0,0,0,0,0,0,0,0,0,0,0,0,0,0,0,0,0,0,0,0,0,0,0,0,0,0,0,0,0,0,0,0,0,0,0,0,0,0,0,
    % monthlyUploadLimitByUser
    0,0,0,0,0,0,0,0,0,0,0,0,0,0,0,0,0,0,0,0,0,0,0,0,0,0,0,0,0,0,0,0,0,0,0,0,0,0,0,0,0,0,0,0,0,0,0,0,0,0,0,0,0,0,0,0,0,
    % maximumNoteSize
    1,0,0,0,0,0,0,0,0,0,0,0,0,0,0,0,0,0,0,0,0,0,0,0,0,0,0,0,0,0,0,0,0,0,0,0,0,0,0,0,0,0,0,0,0,0,0,0,0,0,0,0,0,0,0,0,0,
    % collaborationSpacesLimit
    0,0,0,0,0,0,0,0,0,0,0,0,0,0,0,0,0,0,0,0,0,0,0,0,0,0,0,0,0,0,0,0,0,0,0,0,0,0,0,0,0,0,0,0,0,1,0,0,0,0,0,0,0,0,0,0,0,
    % devicesOfDevicesWithOneAccount
    0,0,0,0,0,0,0,0,0,0,0,0,0,0,0,0,0,0,0,0,0,0,0,0,0,0,0,0,0,0,0,0,0,0,0,0,0,0,0,0,0,0,0,0,0,0,0,0,0,0,0,0,0,0,0,0,0
]);

plans_features = array2d(PLANS, FEATURES, [
    % FREE
    1,1,1,1,1,1,1,1,1,1,1,1,1,1,1,1,0,0,0,1,1,1,1,1,1,1,1,1,1,0,0,0,1,1,1,0,0,0,0,0,0,0,0,0,0,0,0,0,0,0,0,0,0,0,0,1,1,
    % PREMIUM
    1,1,1,1,1,1,1,1,1,1,1,1,1,1,1,1,1,1,1,1,1,1,1,1,1,1,1,1,1,1,1,1,1,1,1,1,0,0,1,1,0,1,1,1,0,0,0,0,0,0,0,0,0,0,0,1,1,
    % BUSINESS
    1,1,1,1,1,1,1,1,1,1,1,1,1,1,1,1,1,1,1,1,1,1,1,1,1,1,1,1,1,1,1,1,1,1,1,1,1,0,1,1,1,1,1,1,1,1,1,1,1,1,1,1,1,1,1,1,1
]);
plans_usage_limits = array2d(PLANS, USAGE_LIMITS, [
    % FREE
    60,0,25,0,2,
    % PREMIUM
    10240,0,200,0,1000000,
    % BUSINESS
    20480,2096,200,10000000,1000000
]);

addons_features = array2d(ADDONS, FEATURES, [
]);
addons_usage_limits = array2d(ADDONS, USAGE_LIMITS, [
]);
addons_usage_limits_extensions = array2d(ADDONS, USAGE_LIMITS, [
]);
addons_available_for = array2d(ADDONS, PLANS, [
]);
addons_depends_on = array2d(ADDONS, ADDONS, [
]);
